SDVRP instances/p01/p01_110_tsplib0_split0.vrp
NAME:.\SDVRP_split
BEST_KNOWN: 0
COMMENT: 0
DIMENSION: 122
CAPACITY: 160
EDGE_WEIGHT_FORMAT: FUNCTION
EDGE_WEIGHT_TYPE: EXACT_2D
NODE_COORD_SECTION
1 0.00000 0.00000
2 7 12
3 7 12
4 7 12
5 7 12
6 19 9
7 19 9
8 19 9
9 22 24
10 22 24
11 -10 -14
12 -10 -14
13 10 -10
14 10 -10
15 10 -10
16 10 -10
17 -9 7
18 -9 7
19 -9 7
20 -9 7
21 -13 23
22 1 22
23 22 -7
24 22 -7
25 21 -19
26 12 1
27 12 1
28 12 1
29 12 1
30 1 -8
31 1 -8
32 1 -8
33 -25 -15
34 -18 2
35 6 -24
36 6 -24
37 6 -24
38 22 1
39 22 1
40 22 1
41 -3 -17
42 -13 -7
43 -17 -27
44 -17 -27
45 -17 -27
46 -17 -27
47 27 18
48 27 18
49 32 2
50 12 17
51 12 17
52 -14 17
53 -14 17
54 -22 12
55 -22 12
56 -23 -2
57 -23 -2
58 -23 -2
59 -3 28
60 -3 28
61 -3 28
62 0 8
63 13 27
64 13 27
65 13 27
66 28 8
67 28 8
68 28 -13
69 7 29
70 7 29
71 7 29
72 7 29
73 8 6
74 8 6
75 8 6
76 8 6
77 16 -30
78 16 -30
79 16 -30
80 16 -30
81 31 -7
82 31 -7
83 32 23
84 32 23
85 32 23
86 32 23
87 33 29
88 2 -18
89 2 -18
90 2 -18
91 15 -5
92 29 -25
93 -25 -34
94 -25 -34
95 -25 -34
96 -25 -34
97 -20 -23
98 -20 -23
99 -9 -30
100 -25 24
101 -25 24
102 0 -25
103 0 -25
104 0 -25
105 9 -30
106 9 -30
107 9 -30
108 9 -30
109 2 -1
110 2 -1
111 2 -1
112 -5 -8
113 -5 15
114 -5 15
115 -5 15
116 -5 15
117 18 -12
118 18 -12
119 18 -12
120 18 -12
121 26 -3
122 26 -3
DEMAND_SECTION
1 0
2 8
3 2
4 2
5 1
6 2
7 2
8 2
9 2
10 2
11 8
12 1
13 8
14 2
15 2
16 2
17 8
18 2
19 2
20 1
21 8
22 2
23 2
24 2
25 1
26 8
27 2
28 2
29 1
30 2
31 2
32 2
33 8
34 8
35 8
36 2
37 1
38 2
39 2
40 1
41 2
42 8
43 8
44 2
45 2
46 1
47 8
48 1
49 2
50 8
51 2
52 8
53 2
54 8
55 1
56 8
57 2
58 2
59 8
60 2
61 1
62 1
63 8
64 2
65 2
66 2
67 1
68 2
69 8
70 2
71 2
72 1
73 8
74 2
75 2
76 1
77 8
78 2
79 2
80 1
81 2
82 2
83 8
84 2
85 2
86 1
87 8
88 8
89 2
90 2
91 8
92 8
93 8
94 2
95 2
96 1
97 2
98 1
99 2
100 8
101 2
102 8
103 2
104 1
105 8
106 2
107 2
108 2
109 2
110 2
111 1
112 8
113 2
114 2
115 2
116 1
117 8
118 2
119 2
120 1
121 8
122 2
DEPOT_SECTION
1
-1
EOF