SDVRP instances/p01/p01_110_tsplib0_split0.sol
121 -18 16 19 17 51 52 20 99 100 54 53 33 56 57 55 32 97 96 93 92 94 95 42 45 43 44 98 101 103 102 40 11 10 41 111 -30 29 31 89 87 88 36 34 35 105 106 104 107 78 76 79 77 91 24 67 81 80 48 65 66 46 47 83 82 84 85 86 9 8 63 64 62 71 68 70 69 58 59 60 21 114 113 112 115 61 -75 72 74 73 3 2 1 4 49 50 6 5 7 39 37 38 121 120 22 23 118 119 116 117 12 14 13 15 90 26 27 28 25 110 108 109 0 





OBJ=
459.500
BEST_KNOWN=
0.000